26
 1 338 13
 2 135 5
 3 308 11
 4 261 9
 5 450 15
 6 279 9
 7 608 19
 8 660 20
 9 578 17
 10 245 7
 11 612 17
 12 148 4
 13 532 14
 14 39 1
 15 320 8
 16 205 5
 17 630 15
 18 86 2
 19 88 2
 20 270 6
 21 414 9
 22 141 3
 23 960 20
 24 294 6
 25 100 2
 26 204 4
208